3 
4  43 54 
5  05 24 32 40 49 59 
6  07 15 22 30 37 45 52 
7  00 07 15 22 30 37 45 52 
8  00 07 15 22 30 37 45 52 59 
9  07 14 22 29 37 44 52 59 
10  07 14 22 29 37 44 52 59 
11  07 14 22 29 37 44 52 59 
12  07 14 22 29 37 44 52 59 
13  07 14 22 29 37 44 52 59 
14  07 14 22 29 37 44 52 59 
15  07 14 22 29 37 44 52 59 
16  07 14 22 29 37 44 52 59 
17  07 14 22 29 37 44 52 59 
18  07 14 22 29 37 44 52 59 
19  07 14 22 29 37 44 52 
20  01 16 31 46 
21  01 16 31 45 
22  00 16 31 45 
23 
